(set-info :status sat)
(declare-const symbol_71 (_ BitVec 32))
(declare-const symbol_68 (_ BitVec 32))
(declare-const symbol_35 (_ BitVec 32))
(declare-const symbol_25 (_ BitVec 32))
(declare-const symbol_27 (_ BitVec 32))
(declare-const symbol_73 (_ BitVec 32))
(declare-const symbol_58 (_ BitVec 32))
(declare-const symbol_17 (_ BitVec 32))
(declare-const symbol_33 (_ BitVec 32))
(declare-const symbol_54 (_ BitVec 32))
(declare-const symbol_45 (_ BitVec 32))
(declare-const symbol_49 (_ BitVec 32))
(declare-const symbol_77 (_ BitVec 32))
(declare-const symbol_60 (_ BitVec 32))
(declare-const symbol_84 (_ BitVec 32))
(declare-const symbol_75 (_ BitVec 32))
(declare-const symbol_29 (_ BitVec 32))
(declare-const symbol_23 (_ BitVec 32))
(declare-const symbol_0 (_ BitVec 32))
(declare-const symbol_82 (_ BitVec 32))
(declare-const symbol_9 (_ BitVec 32))
(declare-const symbol_36 (_ BitVec 32))
(declare-const symbol_64 (_ BitVec 32))
(declare-const symbol_52 (_ BitVec 32))
(declare-const symbol_16 (_ BitVec 32))
(declare-const symbol_11 (_ BitVec 32))
(declare-const symbol_3 (_ BitVec 32))
(declare-const symbol_46 (_ BitVec 32))
(declare-const symbol_38 (_ BitVec 32))
(declare-const symbol_1 (_ BitVec 32))
(declare-const symbol_41 (_ BitVec 32))
(declare-const symbol_79 (_ BitVec 32))
(declare-const symbol_62 (_ BitVec 32))
(declare-const symbol_80 (_ BitVec 32))
(declare-const symbol_50 (_ BitVec 32))
(declare-const symbol_66 (_ BitVec 32))
(declare-const symbol_21 (_ BitVec 32))
(declare-const symbol_19 (_ BitVec 32))
(declare-const symbol_43 (_ BitVec 32))
(declare-const symbol_86 (_ BitVec 32))
(declare-const symbol_31 (_ BitVec 32))
(declare-const symbol_13 (_ BitVec 32))
(declare-const symbol_7 (_ BitVec 32))
(declare-const symbol_56 (_ BitVec 32))
(declare-const symbol_70 (_ BitVec 32))
(declare-const symbol_5 (_ BitVec 32))
(assert (not (= symbol_86 (_ bv13 32))))
(assert (not (not (= symbol_84 (_ bv13 32)))))
(assert (not (not (= symbol_82 (_ bv13 32)))))
(assert (not (not (= symbol_80 (_ bv13 32)))))
(assert (not (not (= symbol_79 (_ bv13 32)))))
(assert (not (not (= symbol_77 (_ bv13 32)))))
(assert (not (not (= symbol_75 (_ bv13 32)))))
(assert (not (not (= symbol_73 (_ bv13 32)))))
(assert (not (not (= symbol_71 (_ bv13 32)))))
(assert (not (not (= symbol_70 (_ bv13 32)))))
(assert (not (not (= symbol_68 (_ bv13 32)))))
(assert (not (not (= symbol_66 (_ bv13 32)))))
(assert (not (not (= symbol_64 (_ bv13 32)))))
(assert (not (not (= symbol_62 (_ bv13 32)))))
(assert (not (not (= symbol_60 (_ bv13 32)))))
(assert (not (not (= symbol_58 (_ bv13 32)))))
(assert (not (not (= symbol_56 (_ bv13 32)))))
(assert (not (not (= symbol_54 (_ bv13 32)))))
(assert (not (not (= symbol_52 (_ bv13 32)))))
(assert (not (not (= symbol_50 (_ bv13 32)))))
(assert (not (not (= symbol_49 (_ bv13 32)))))
(assert (not (not (= symbol_46 (_ bv13 32)))))
(assert (not (not (= symbol_45 (_ bv13 32)))))
(assert (not (not (= symbol_43 (_ bv13 32)))))
(assert (not (not (= symbol_41 (_ bv13 32)))))
(assert (not (not (= symbol_38 (_ bv13 32)))))
(assert (not (not (= symbol_36 (_ bv13 32)))))
(assert (not (not (= symbol_35 (_ bv13 32)))))
(assert (not (not (= symbol_33 (_ bv13 32)))))
(assert (not (not (= symbol_31 (_ bv13 32)))))
(assert (not (not (= symbol_29 (_ bv13 32)))))
(assert (not (not (= symbol_27 (_ bv13 32)))))
(assert (not (not (= symbol_25 (_ bv13 32)))))
(assert (not (not (= symbol_23 (_ bv13 32)))))
(assert (not (not (= symbol_21 (_ bv13 32)))))
(assert (not (not (= symbol_19 (_ bv13 32)))))
(assert (not (not (= symbol_17 (_ bv13 32)))))
(assert (not (not (= symbol_16 (_ bv13 32)))))
(assert (not (not (= symbol_13 (_ bv13 32)))))
(assert (not (not (= symbol_11 (_ bv13 32)))))
(assert (not (not (= symbol_9 (_ bv13 32)))))
(assert (not (not (= symbol_7 (_ bv13 32)))))
(assert (not (not (= symbol_5 (_ bv13 32)))))
(assert (not (not (= symbol_3 (_ bv13 32)))))
(assert (not (not (= symbol_1 (_ bv13 32)))))
(assert (not (not (= symbol_0 (_ bv13 32)))))
(check-sat)